Name: HA_curriculum
Courses: 6
Rooms: 6
Days: 3
Periods_per_day: 3
Curricula: 4
Constraints: 40

COURSES:
c0001 t000 1 1 130
c0002 t001 1 1 75
c0003 t002 1 1 117
c0004 t003 1 1 117
c0005 t004 1 1 117
c0006 t005 1 1 117



ROOMS:
A	200
B   200
C   200
D   200
E   200
F   200

CURRICULA:
q000  3 c0003 c0002 c0001
q001  4 c0002 c0003 c0005 c0001
q002  2 c0003 c0004
q003  2 c0005 c0006


UNAVAILABILITY_CONSTRAINTS:
c0001 0 1
c0001 0 2
c0001 1 0
c0001 1 1
c0001 1 2
c0001 2 0
c0001 2 1
c0001 2 2
c0002 0 1
c0002 0 2
c0002 1 0
c0002 1 1
c0002 1 2
c0002 2 0
c0002 2 1
c0002 2 2
c0003 0 1
c0003 0 2
c0003 1 0
c0003 1 1
c0003 1 2
c0003 2 0
c0003 2 1
c0003 2 2
c0004 0 1
c0004 0 2
c0004 1 0
c0004 1 1
c0004 1 2
c0004 2 0
c0004 2 1
c0004 2 2
c0006 0 1
c0006 0 2
c0006 1 0
c0006 1 1
c0006 1 2
c0006 2 0
c0006 2 1
c0006 2 2

END.